% demand
num_movements = 19;
loading_factor = [1750, 1450, 1250, 1750, 1050, 900, 1000, 1500, 1050, 1550, 950, 1100, 1400, 1950, 1750, 1050, 1000, 800, 1550];
pickup_time = [0, 0, 0, 2, 2, 2, 4, 5, 5, 5, 6, 6, 6, 6, 7, 7, 7, 7, 9];
delivery_time = [2, 1, 6, 5, 5, 3, 9, 6, 6, 6, 7, 7, 9, 7, 9, 8, 10, 9, 10];

% transporter definition
total_capacity = 7000;
num_decks = 3;
capacity = [3000, 1000, 3000];

% ways out of decks
num_ways_out = 1;
paths_out = array3d(decks, ways_out, decks, [
% ways out of deck d1
2, 3, 0, 

% ways out of deck d2
3, 0, 0, 

% ways out of deck d3
0, 0, 0,	

]);

